p cnf 1032
-15 -323
-16 -326
-17 -329
-18 -332
-19 -335
-20 -338
-21 -341
-22 -344
-23 -347
-24 -350
-25 -353
-26 -356
-27 -359
-28 -362
-29 363
-30 364
-31 365
-32 366
-33 367
-34 368
-35 369
-36 370
-37 371
-38 -16
-38 -17
16 17 38
-39 -18
-39 -19
18 19 39
-40 -20
-40 -21
20 21 40
-41 -22
-41 -23
22 23 41
-42 -24
-42 -25
24 25 42
-43 -26
-43 -27
26 27 43
-44 -28
-44 -29
28 29 44
-45 -30
-45 -31
30 31 45
-46 -32
-46 -33
32 33 46
-47 -34
-47 -35
34 35 47
-48 -36
-48 -37
36 37 48
-49 38
-49 39
-38 -39 49
-50 40
-50 41
-40 -41 50
-51 42
-51 43
-42 -43 51
-52 44
-52 45
-44 -45 52
-53 46
-53 47
-46 -47 53
-54 49
-54 50
-49 -50 54
-55 51
-55 52
-51 -52 55
-56 48
-56 53
-48 -53 56
-57 54
-57 55
-54 -55 57
-58 56
-58 57
-56 -57 58
-59 -15
-59 16
15 -16 59
-60 15
-60 -16
-15 16 60
-61 -59
-61 -60
59 60 61
-62 15
-62 16
-15 -16 62
-63 -15
-63 -61
15 61 63
-64 15
-64 61
-15 -61 64
-65 -63
-65 -64
63 64 65
-66 15
-66 -61
-15 61 66
-67 -62
-67 -66
62 66 67
-68 -16
-68 17
16 -17 68
-69 16
-69 -17
-16 17 69
-70 -68
-70 -69
68 69 70
-71 16
-71 17
-16 -17 71
-72 67
-72 -70
-67 70 72
-73 -67
-73 70
67 -70 73
-74 -72
-74 -73
72 73 74
-75 -67
-75 -70
67 70 75
-76 -71
-76 -75
71 75 76
-77 -17
-77 18
17 -18 77
-78 17
-78 -18
-17 18 78
-79 -77
-79 -78
77 78 79
-80 17
-80 18
-17 -18 80
-81 76
-81 -79
-76 79 81
-82 -76
-82 79
76 -79 82
-83 -81
-83 -82
81 82 83
-84 -76
-84 -79
76 79 84
-85 -80
-85 -84
80 84 85
-86 -18
-86 19
18 -19 86
-87 18
-87 -19
-18 19 87
-88 -86
-88 -87
86 87 88
-89 18
-89 19
-18 -19 89
-90 85
-90 -88
-85 88 90
-91 -85
-91 88
85 -88 91
-92 -90
-92 -91
90 91 92
-93 -85
-93 -88
85 88 93
-94 -89
-94 -93
89 93 94
-95 -19
-95 20
19 -20 95
-96 19
-96 -20
-19 20 96
-97 -95
-97 -96
95 96 97
-98 19
-98 20
-19 -20 98
-99 94
-99 -97
-94 97 99
-100 -94
-100 97
94 -97 100
-101 -99
-101 -100
99 100 101
-102 -94
-102 -97
94 97 102
-103 -98
-103 -102
98 102 103
-104 -20
-104 21
20 -21 104
-105 20
-105 -21
-20 21 105
-106 -104
-106 -105
104 105 106
-107 20
-107 21
-20 -21 107
-108 103
-108 -106
-103 106 108
-109 -103
-109 106
103 -106 109
-110 -108
-110 -109
108 109 110
-111 -103
-111 -106
103 106 111
-112 -107
-112 -111
107 111 112
-113 -21
-113 22
21 -22 113
-114 21
-114 -22
-21 22 114
-115 -113
-115 -114
113 114 115
-116 21
-116 22
-21 -22 116
-117 112
-117 -115
-112 115 117
-118 -112
-118 115
112 -115 118
-119 -117
-119 -118
117 118 119
-120 -112
-120 -115
112 115 120
-121 -116
-121 -120
116 120 121
-122 -22
-122 23
22 -23 122
-123 22
-123 -23
-22 23 123
-124 -122
-124 -123
122 123 124
-125 22
-125 23
-22 -23 125
-126 121
-126 -124
-121 124 126
-127 -121
-127 124
121 -124 127
-128 -126
-128 -127
126 127 128
-129 -121
-129 -124
121 124 129
-130 -125
-130 -129
125 129 130
-131 -23
-131 24
23 -24 131
-132 23
-132 -24
-23 24 132
-133 -131
-133 -132
131 132 133
-134 23
-134 24
-23 -24 134
-135 130
-135 -133
-130 133 135
-136 -130
-136 133
130 -133 136
-137 -135
-137 -136
135 136 137
-138 -130
-138 -133
130 133 138
-139 -134
-139 -138
134 138 139
-140 -24
-140 25
24 -25 140
-141 24
-141 -25
-24 25 141
-142 -140
-142 -141
140 141 142
-143 24
-143 25
-24 -25 143
-144 139
-144 -142
-139 142 144
-145 -139
-145 142
139 -142 145
-146 -144
-146 -145
144 145 146
-147 -139
-147 -142
139 142 147
-148 -143
-148 -147
143 147 148
-149 -25
-149 26
25 -26 149
-150 25
-150 -26
-25 26 150
-151 -149
-151 -150
149 150 151
-152 25
-152 26
-25 -26 152
-153 148
-153 -151
-148 151 153
-154 -148
-154 151
148 -151 154
-155 -153
-155 -154
153 154 155
-156 -148
-156 -151
148 151 156
-157 -152
-157 -156
152 156 157
-158 -26
-158 27
26 -27 158
-159 26
-159 -27
-26 27 159
-160 -158
-160 -159
158 159 160
-161 26
-161 27
-26 -27 161
-162 157
-162 -160
-157 160 162
-163 -157
-163 160
157 -160 163
-164 -162
-164 -163
162 163 164
-165 -157
-165 -160
157 160 165
-166 -161
-166 -165
161 165 166
-167 -27
-167 28
27 -28 167
-168 27
-168 -28
-27 28 168
-169 -167
-169 -168
167 168 169
-170 27
-170 28
-27 -28 170
-171 166
-171 -169
-166 169 171
-172 -166
-172 169
166 -169 172
-173 -171
-173 -172
171 172 173
-174 -166
-174 -169
166 169 174
-175 -170
-175 -174
170 174 175
-176 -28
-176 29
28 -29 176
-177 28
-177 -29
-28 29 177
-178 -176
-178 -177
176 177 178
-179 28
-179 29
-28 -29 179
-180 175
-180 -178
-175 178 180
-181 -175
-181 178
175 -178 181
-182 -180
-182 -181
180 181 182
-183 -175
-183 -178
175 178 183
-184 -179
-184 -183
179 183 184
-185 -29
-185 30
29 -30 185
-186 29
-186 -30
-29 30 186
-187 -185
-187 -186
185 186 187
-188 29
-188 30
-29 -30 188
-189 184
-189 -187
-184 187 189
-190 -184
-190 187
184 -187 190
-191 -189
-191 -190
189 190 191
-192 -184
-192 -187
184 187 192
-193 -188
-193 -192
188 192 193
-194 -30
-194 31
30 -31 194
-195 30
-195 -31
-30 31 195
-196 -194
-196 -195
194 195 196
-197 30
-197 31
-30 -31 197
-198 193
-198 -196
-193 196 198
-199 -193
-199 196
193 -196 199
-200 -198
-200 -199
198 199 200
-201 -193
-201 -196
193 196 201
-202 -197
-202 -201
197 201 202
-203 -31
-203 32
31 -32 203
-204 31
-204 -32
-31 32 204
-205 -203
-205 -204
203 204 205
-206 31
-206 32
-31 -32 206
-207 202
-207 -205
-202 205 207
-208 -202
-208 205
202 -205 208
-209 -207
-209 -208
207 208 209
-210 -202
-210 -205
202 205 210
-211 -206
-211 -210
206 210 211
-212 -32
-212 33
32 -33 212
-213 32
-213 -33
-32 33 213
-214 -212
-214 -213
212 213 214
-215 32
-215 33
-32 -33 215
-216 211
-216 -214
-211 214 216
-217 -211
-217 214
211 -214 217
-218 -216
-218 -217
216 217 218
-219 -211
-219 -214
211 214 219
-220 -215
-220 -219
215 219 220
-221 -33
-221 34
33 -34 221
-222 33
-222 -34
-33 34 222
-223 -221
-223 -222
221 222 223
-224 33
-224 34
-33 -34 224
-225 220
-225 -223
-220 223 225
-226 -220
-226 223
220 -223 226
-227 -225
-227 -226
225 226 227
-228 -220
-228 -223
220 223 228
-229 -224
-229 -228
224 228 229
-230 -34
-230 35
34 -35 230
-231 34
-231 -35
-34 35 231
-232 -230
-232 -231
230 231 232
-233 34
-233 35
-34 -35 233
-234 229
-234 -232
-229 232 234
-235 -229
-235 232
229 -232 235
-236 -234
-236 -235
234 235 236
-237 -229
-237 -232
229 232 237
-238 -233
-238 -237
233 237 238
-239 -35
-239 36
35 -36 239
-240 35
-240 -36
-35 36 240
-241 -239
-241 -240
239 240 241
-242 35
-242 36
-35 -36 242
-243 238
-243 -241
-238 241 243
-244 -238
-244 241
238 -241 244
-245 -243
-245 -244
243 244 245
-246 -238
-246 -241
238 241 246
-247 -242
-247 -246
242 246 247
-248 -36
-248 37
36 -37 248
-249 36
-249 -37
-36 37 249
-250 -248
-250 -249
248 249 250
-251 36
-251 37
-36 -37 251
-252 247
-252 -250
-247 250 252
-253 -247
-253 250
247 -250 253
-254 -252
-254 -253
252 253 254
-255 -247
-255 -250
247 250 255
-256 -251
-256 -255
251 255 256
-257 15
-257 -65
-15 65 257
-258 -15
-258 17
15 -17 258
-259 -257
-259 -258
257 258 259
-260 15
-260 -74
-15 74 260
-261 -15
-261 18
15 -18 261
-262 -260
-262 -261
260 261 262
-263 15
-263 -83
-15 83 263
-264 -15
-264 19
15 -19 264
-265 -263
-265 -264
263 264 265
-266 15
-266 -92
-15 92 266
-267 -15
-267 20
15 -20 267
-268 -266
-268 -267
266 267 268
-269 15
-269 -101
-15 101 269
-270 -15
-270 21
15 -21 270
-271 -269
-271 -270
269 270 271
-272 15
-272 -110
-15 110 272
-273 -15
-273 22
15 -22 273
-274 -272
-274 -273
272 273 274
-275 15
-275 -119
-15 119 275
-276 -15
-276 23
15 -23 276
-277 -275
-277 -276
275 276 277
-278 15
-278 -128
-15 128 278
-279 -15
-279 24
15 -24 279
-280 -278
-280 -279
278 279 280
-281 15
-281 -137
-15 137 281
-282 -15
-282 25
15 -25 282
-283 -281
-283 -282
281 282 283
-284 15
-284 -146
-15 146 284
-285 -15
-285 26
15 -26 285
-286 -284
-286 -285
284 285 286
-287 15
-287 -155
-15 155 287
-288 -15
-288 27
15 -27 288
-289 -287
-289 -288
287 288 289
-290 15
-290 -164
-15 164 290
-291 -15
-291 28
15 -28 291
-292 -290
-292 -291
290 291 292
-293 15
-293 -173
-15 173 293
-294 -15
-294 29
15 -29 294
-295 -293
-295 -294
293 294 295
-296 15
-296 -182
-15 182 296
-297 -15
-297 30
15 -30 297
-298 -296
-298 -297
296 297 298
-299 15
-299 -191
-15 191 299
-300 -15
-300 31
15 -31 300
-301 -299
-301 -300
299 300 301
-302 15
-302 -200
-15 200 302
-303 -15
-303 32
15 -32 303
-304 -302
-304 -303
302 303 304
-305 15
-305 -209
-15 209 305
-306 -15
-306 33
15 -33 306
-307 -305
-307 -306
305 306 307
-308 15
-308 -218
-15 218 308
-309 -15
-309 34
15 -34 309
-310 -308
-310 -309
308 309 310
-311 15
-311 -227
-15 227 311
-312 -15
-312 35
15 -35 312
-313 -311
-313 -312
311 312 313
-314 15
-314 -236
-15 236 314
-315 -15
-315 36
15 -36 315
-316 -314
-316 -315
314 315 316
-317 15
-317 -245
-15 245 317
-318 -15
-318 37
15 -37 318
-319 -317
-319 -318
317 318 319
-320 15
-320 -254
-15 254 320
-321 1
-321 58
-1 -58 321
-322 -58
-322 59
58 -59 322
-323 -321
-323 -322
321 322 323
-324 2
-324 58
-2 -58 324
-325 -58
-325 -259
58 259 325
-326 -324
-326 -325
324 325 326
-327 3
-327 58
-3 -58 327
-328 -58
-328 -262
58 262 328
-329 -327
-329 -328
327 328 329
-330 4
-330 58
-4 -58 330
-331 -58
-331 -265
58 265 331
-332 -330
-332 -331
330 331 332
-333 5
-333 58
-5 -58 333
-334 -58
-334 -268
58 268 334
-335 -333
-335 -334
333 334 335
-336 6
-336 58
-6 -58 336
-337 -58
-337 -271
58 271 337
-338 -336
-338 -337
336 337 338
-339 7
-339 58
-7 -58 339
-340 -58
-340 -274
58 274 340
-341 -339
-341 -340
339 340 341
-342 8
-342 58
-8 -58 342
-343 -58
-343 -277
58 277 343
-344 -342
-344 -343
342 343 344
-345 9
-345 58
-9 -58 345
-346 -58
-346 -280
58 280 346
-347 -345
-347 -346
345 346 347
-348 10
-348 58
-10 -58 348
-349 -58
-349 -283
58 283 349
-350 -348
-350 -349
348 349 350
-351 11
-351 58
-11 -58 351
-352 -58
-352 -286
58 286 352
-353 -351
-353 -352
351 352 353
-354 12
-354 58
-12 -58 354
-355 -58
-355 -289
58 289 355
-356 -354
-356 -355
354 355 356
-357 13
-357 58
-13 -58 357
-358 -58
-358 -292
58 292 358
-359 -357
-359 -358
357 358 359
-360 14
-360 58
-14 -58 360
-361 -58
-361 -295
58 295 361
-362 -360
-362 -361
360 361 362
-363 -58
-363 -298
58 298 363
-364 -58
-364 -301
58 301 364
-365 -58
-365 -304
58 304 365
-366 -58
-366 -307
58 307 366
-367 -58
-367 -310
58 310 367
-368 -58
-368 -313
58 313 368
-369 -58
-369 -316
58 316 369
-370 -58
-370 -319
58 319 370
-371 -58
-371 320
58 -320 371
-372 -37
-372 256
37 -256 372
-373 15
-373 -372
-15 372 373
373
